networks/zoo_25_32/zoo_25_32.sol
<?xml version = "1.0" encoding="UTF-8" standalone="yes"?>
<CPLEXSolution version="1.2">
 <header
   problemName="networks/zoo_25_32/zoo_25_32.lp"
   solutionName="incumbent"
   solutionIndex="-1"
   objectiveValue="10"
   solutionTypeValue="3"
   solutionTypeString="primal"
   solutionStatusValue="101"
   solutionStatusString="integer optimal solution"
   solutionMethodString="mip"
   primalFeasible="1"
   dualFeasible="1"
   MIPNodes="0"
   MIPIterations="27"
   writeLevel="3"/>
 <quality
   epInt="1.0000000000000001e-05"
   epRHS="9.9999999999999995e-07"
   maxIntInfeas="0"
   maxPrimalInfeas="0"
   maxX="2"
   maxSlack="8"/>
 <variables>
  <variable name="Y(2,7)" index="21" value="1"/>
  <variable name="Y(4,4)" index="54" value="1"/>
  <variable name="Y(13,9)" index="221" value="1"/>
  <variable name="Y(14,10)" index="240" value="1"/>
  <variable name="Y(16,12)" index="278" value="1"/>
  <variable name="Y(24,6)" index="416" value="1"/>
  <variable name="Y(25,11)" index="439" value="1"/>
  <variable name="Y(27,5)" index="469" value="1"/>
  <variable name="Y(30,8)" index="526" value="1"/>
  <variable name="Y(31,8)" index="544" value="1"/>
  <variable name="X(4,6,2)" index="577" value="1"/>
  <variable name="X(4,17,4)" index="611" value="1"/>
  <variable name="X(5,6,4)" index="643" value="1"/>
  <variable name="X(5,18,27)" index="698" value="1"/>
  <variable name="X(6,4,4)" index="707" value="1"/>
  <variable name="X(6,5,27)" index="762" value="1"/>
  <variable name="X(6,7,2)" index="769" value="1"/>
  <variable name="X(6,8,13)" index="812" value="1"/>
  <variable name="X(6,10,14)" index="845" value="1"/>
  <variable name="X(6,19,24)" index="887" value="1"/>
  <variable name="X(7,20,2)" index="897" value="1"/>
  <variable name="X(8,6,27)" index="954" value="1"/>
  <variable name="X(8,9,13)" index="972" value="1"/>
  <variable name="X(8,10,31)" index="1022" value="1"/>
  <variable name="X(8,11,25)" index="1048" value="1"/>
  <variable name="X(8,21,30)" index="1085" value="1"/>
  <variable name="X(9,22,13)" index="1100" value="1"/>
  <variable name="X(10,6,24)" index="1143" value="1"/>
  <variable name="X(10,8,25)" index="1176" value="1"/>
  <variable name="X(10,23,14)" index="1197" value="1"/>
  <variable name="X(11,8,30)" index="1245" value="1"/>
  <variable name="X(11,12,16)" index="1263" value="1"/>
  <variable name="X(11,24,25)" index="1304" value="1"/>
  <variable name="X(12,25,16)" index="1327" value="1"/>
  <variable name="C(2,6)" index="1347" value="1"/>
  <variable name="C(2,7)" index="1348" value="2"/>
  <variable name="C(4,6)" index="1354" value="1"/>
  <variable name="C(4,4)" index="1355" value="2"/>
  <variable name="C(13,8)" index="1379" value="1"/>
  <variable name="C(13,9)" index="1380" value="2"/>
  <variable name="C(14,10)" index="1382" value="1"/>
  <variable name="C(16,12)" index="1389" value="1"/>
  <variable name="C(24,6)" index="1409" value="1"/>
  <variable name="C(25,8)" index="1411" value="1"/>
  <variable name="C(25,11)" index="1412" value="2"/>
  <variable name="C(27,6)" index="1419" value="1"/>
  <variable name="C(27,5)" index="1420" value="2"/>
  <variable name="C(30,8)" index="1429" value="1"/>
 </variables>
</CPLEXSolution>
